MW

VEHICLE
NUMBER     CAPACITY
  25         33

CUSTOMER
CUST NO.   XCOORD.    YCOORD.    DEMAND   READY TIME   DUE DATE   SERVICE TIME

    0      677.908     6150.22       0         360        1320         0
    1      720.415     6176.26       16        456         576         0
    2      711.815     6208.84       10        417         537         0
    3      710.831     6168.72       4        367         487         0
    4      662.179     6199.59       4        409         529         0
    5      720.134     6210.2       3        502         622         0
    6      723.05     6178.5       9        437         557         0
    7      722.462     6177.77       3        360         465         0
    8      719.104     6173.16       3        425         545         0
    9      726.755     6174.37       6        368         488         0
    10      718.638     6205.73       8        463         583         0
    11      538.181     6086.48       16        763         883         0
    12      588.257     6139.25       10        672         792         0
    13      528.913     6152.56       4        979         1099         0
    14      500.074     6269.75       4        936         1056         0
    15      585.053     6140.35       3        704         824         0
    16      557.926     6181.75       9        720         840         0
    17      609.023     6077.16       3        769         889         0
    18      507.721     6199.18       3        976         1096         0
    19      522.714     6075.1       6        814         934         0
    20      526.981     6257.53       8        874         994         0

0	1 2 3 4 5 6 7 8 9 10 11 12 13 14 15 16 17 18 19 20 
1	2 3 4 5 6 7 8 9 10 0 
2	1 3 4 5 6 7 8 9 10 0 
3	1 2 4 5 6 7 8 9 10 0 
4	1 2 3 5 6 7 8 9 10 0 
5	1 2 3 4 6 7 8 9 10 0 
6	1 2 3 4 5 7 8 9 10 0 
7	1 2 3 4 5 6 8 9 10 0 
8	1 2 3 4 5 6 7 9 10 0 
9	1 2 3 4 5 6 7 8 10 0 
10	1 2 3 4 5 6 7 8 9 0 
11	12 13 14 15 16 17 18 19 20 0 
12	11 13 14 15 16 17 18 19 20 0 
13	11 12 14 15 16 17 18 19 20 0 
14	11 12 13 15 16 17 18 19 20 0 
15	11 12 13 14 16 17 18 19 20 0 
16	11 12 13 14 15 17 18 19 20 0 
17	11 12 13 14 15 16 18 19 20 0 
18	11 12 13 14 15 16 17 19 20 0 
19	11 12 13 14 15 16 17 18 20 0 
20	11 12 13 14 15 16 17 18 19 0 
